c --- [ banner ] -------------------------------------------------------------
c 
c CaDiCaL Radically Simplified CDCL SAT Solver
c Copyright (c) 2016-2021 A. Biere, M. Fleury, N. Froleyks
c 
c Version 1.5.2 ca9bff05c11bde5eae4912f9932871d1527e61d8
c g++ (GCC) 9.3.0 -Wall -Wextra -O3 -DNDEBUG
c Sun May 1 02:23:23 EDT 2022 Linux gra-login1 3.10.0-1160.59.1.el7.x86_64 x86_64
c 
c --- [ limit ] --------------------------------------------------------------
c 
c setting conflict limit to 200000 conflicts (due to '200000')
c 
c --- [ parsing input ] ------------------------------------------------------
c 
c reading DIMACS file from '12.cubes309.adj'
c opening file to read '12.cubes309.adj'
c found 'p cnf 5320 924210' header
c parsed 924210 clauses in 8.74 seconds process time
c closing file '12.cubes309.adj'
c after reading 686668117 bytes 654.9 MB
c 
c --- [ options ] ------------------------------------------------------------
c 
c all options are set to their default value
c 
c --- [ solving ] ------------------------------------------------------------
c 
c time measured in process time since initialization
c 
c  seconds   reductions  redundant  irredundant
c          MB    restarts       trail      variables
c           level   conflicts       glue        remaining
c 
c *  8.74 690  0 0   0    0    0  0% 0 923580 4043 76%
c {  9.27 720  0 0   0    0    0  0% 0 923580 4043 76%
c i  9.34 721  1 0   0    1    0 33% 0 923580 4031 76%
c i  9.36 721 55 0   0    2    0 34% 0 923580 4022 76%
c i  9.42 723 78 0   0    3    0 35% 0 923580 4005 75%
c i  9.82 739 124 0   1   17   10 44% 6 923580 3989 75%
c i 10.35 749 67 0   7   73   54 48% 9 923580 3929 74%
c i 10.42 750 65 0   9   84   63 49% 12 923580 3918 74%
c i 10.48 750 62 0  13  105   77 50% 17 923580 3917 74%
c i 10.49 750 61 0  14  107   78 50% 17 923580 3916 74%
c i 10.50 750 60 0  15  109   79 50% 17 923580 3915 74%
c i 10.52 751 60 0  15  111   80 50% 17 923580 3914 74%
c i 10.53 751 59 0  16  112   80 50% 17 923580 3913 74%
c i 10.54 751 58 0  16  113   80 50% 16 923580 3912 74%
c i 10.54 751 58 0  16  114   80 50% 16 923580 3911 74%
c i 10.54 751 57 0  17  115   80 50% 16 923580 3910 73%
c i 10.55 751 56 0  19  125   86 50% 17 923580 3900 73%
c i 10.57 751 56 0  20  127   86 50% 17 923580 3899 73%
c i 10.61 752 62 0  21  141   90 49% 17 923580 3890 73%
c i 10.66 752 65 0  22  148   96 49% 17 923580 3889 73%
c 
c  seconds   reductions  redundant   irredundant
c          MB    restarts       trail       variables
c           level   conflicts       glue         remaining
c 
c i 10.78 753 67 0  23  198  137 49% 14 923580 3888 73%
c i 10.82 753 68 0  23  253  176 49% 15 923580 3887 73%
c i 10.82 753 68 0  23  255  177 49% 14 923580 3886 73%
c i 10.82 753 68 0  23  258  178 49% 14 923580 3884 73%
c i 10.82 753 67 0  23  259  178 48% 14 923580 3883 73%
c i 10.82 753 67 0  23  260  178 48% 14 923580 3882 73%
c i 10.82 753 67 0  23  261  178 48% 14 923580 3881 73%
c i 10.82 753 67 0  23  262  178 48% 14 923580 3880 73%
c i 10.83 753 63 0  23  280  195 48% 13 923580 3879 73%
c i 10.84 753 63 0  23  281  195 48% 13 923580 3878 73%
c i 10.84 753 63 0  23  282  195 48% 13 923580 3877 73%
c i 10.86 753 63 0  23  286  197 48% 13 923580 3876 73%
c - 12.63 686 61 1  23  300  205 48% 13 148535 3876 73%
c i 12.71 686 57 1  23  334  224 47% 13 148535 3875 73%
c i 12.74 686 56 1  23  351  236 48% 13 148535 3874 73%
c i 12.85 686 54 1  37  414  288 48% 14 148535 3873 73%
c i 12.92 686 54 1  46  459  321 49% 15 148535 3872 73%
c i 12.92 686 54 1  47  471  329 49% 15 148535 3871 73%
c i 12.93 686 54 1  48  473  330 49% 15 148535 3870 73%
c } 13.17 687 31 1  61 1002  429 46% 12 148535 3870 73%
c 
c  seconds   reductions  redundant  irredundant
c          MB    restarts       trail      variables
c           level   conflicts       glue        remaining
c 
c [ 13.17 687  0 1  61 1002  429  0% 0 148535 3870 73%
c O 13.17 687  5 1  61 1003  430 41% 1 148535 3870 73%
c - 13.39 729  5 2  61 1003  352 41% 1 148517 3870 73%
c i 13.39 729  3 2  61 1042  358 39% 3 148517 3799 71%
c i 13.41 729  6 2  61 1140  370 41% 6 148517 3798 71%
c i 13.44 729  8 2  61 1160  382 42% 7 148517 3797 71%
c i 13.44 729  8 2  61 1163  384 42% 7 148517 3796 71%
c i 13.44 729  8 2  61 1170  388 43% 7 148517 3795 71%
c i 13.45 729  9 2  61 1182  391 44% 7 148517 3794 71%
c i 13.45 729 10 2  61 1194  402 45% 8 148517 3793 71%
c i 13.46 729 12 2  61 1219  423 46% 9 148517 3792 71%
c i 13.46 729 12 2  61 1222  423 46% 9 148517 3791 71%
c - 13.74 725 18 3  62 2058  836 53% 15 147184 3791 71%
c i 13.89 725 18 3  62 2306  962 37% 16 147184 3790 71%
c i 13.92 725 18 3  62 2474 1058 38% 16 147184 3789 71%
c i 13.98 725 18 3  62 2830 1241 38% 16 147184 3788 71%
c i 13.99 725 18 3  62 2874 1265 38% 16 147184 3787 71%
c ] 14.02 725 19 3  62 3002 1348 37% 16 147184 3787 71%
c { 14.02 725 31 3  62 3002 1348 64% 12 147184 3787 71%
c F 14.02 725 31 3  62 3004 1350 64% 12 147184 3787 71%
c 
c  seconds   reductions  redundant   irredundant
c          MB    restarts       trail       variables
c           level   conflicts       glue         remaining
c 
c i 14.27 725 29 3 109 3387 1593 54% 12 147184 3786 71%
c - 14.39 687 29 4 123 3461 1253 53% 13 147169 3786 71%
c i 14.39 687 29 4 123 3463 1254 52% 13 147169 3785 71%
c i 14.49 687 25 4 139 4147 1355 43% 13 147169 3784 71%
c i 14.57 687 22 4 147 4886 1425 38% 12 147169 3783 71%
c i 14.60 687 21 4 153 4960 1451 38% 12 147169 3782 71%
c d 14.76 687 22 4 153 5000 1488 38% 12 147139 3773 71%
c 2 14.79 687 22 4 153 5000 3229 38% 12 147088 3773 71%
c p 15.88 687 22 4 153 5000 10562 38% 12 147088 3709 70%
c d 16.04 687 22 4 153 5000 9678 38% 12 146101 3704 70%
c - 16.34 688 23 5 206 5214 1434 37% 13 146101 3704 70%
c # 16.94 688 24 5 331 6008 2025 36% 14 146101 3704 70%
c } 17.41 688 24 5 392 7006 2352 34% 13 146101 3704 70%
c [ 17.41 688 19 5 392 7006 2352 37% 16 146101 3704 70%
c - 17.54 688 18 6 393 7312 1979 37% 16 146101 3704 70%
c - 18.18 688 21 7 394 9757 2599 37% 18 146101 3704 70%
c I 18.25 688 21 7 394 10009 2742 37% 18 146101 3704 70%
c - 19.00 688 21 8 396 12552 3067 36% 18 146101 3704 70%
c 2 19.79 688 20 8 397 15001 6094 36% 17 146092 3704 70%
c p 20.29 688 20 8 397 15001 12539 36% 17 146092 3703 70%
c 
c  seconds   reductions    redundant   irredundant
c          MB    restarts         trail       variables
c           level    conflicts        glue         remaining
c 
c ] 20.33 688 20 8 397 15009 12545 36% 17 146092 3703 70%
c { 20.33 688 24 8 397 15009 12545 34% 13 146092 3703 70%
c B 20.34 688 24 8 398 15010 12546 34% 13 146092 3703 70%
c s 20.71 688 23 8 438 15672 12575 34% 13 143321 3703 70%
c v 21.52 689 23 8 438 15672 12575 34% 13 143239 3703 70%
c w 21.55 689 23 8 438 15672 12572 34% 13 143239 3703 70%
c t 21.57 689 23 8 438 15672 12541 34% 13 143164 3703 70%
c e 21.80 690 23 8 438 15672 6293 34% 13 138185 892 17%
c s 21.90 690 23 8 438 15672 6288 34% 13 137708 892 17%
c - 22.32 690 23 9 445 15697 3271 58% 13 137708 892 17%
c - 23.38 690 21 10 578 19115 3473 60% 13 137708 892 17%
c W 24.50 690 21 10 766 21014 4815 59% 13 137708 892 17%
c - 25.29 690 21 11 918 22875 4194 58% 14 137708 892 17%
c - 26.32 690 19 12 989 26975 4673 58% 13 137708 892 17%
c F 26.75 690 19 12 1074 28020 5335 58% 13 137708 892 17%
c 2 27.62 690 19 12 1238 30005 7428 58% 13 137705 887 17%
c p 27.85 690 19 12 1238 30005 9359 58% 13 137705 884 17%
c d 27.97 690 19 12 1238 30005 9199 58% 13 137463 883 17%
c } 28.35 690 19 12 1261 31010 9775 58% 13 137463 883 17%
c [ 28.35 690 20 12 1261 31010 9775 153% 17 137463 883 17%
c 
c  seconds   reductions     redundant    irredundant
c          MB     restarts         trail        variables
c           level      conflicts        glue        remaining
c 
c - 28.54 690 20 13 1261 31417 5703 149% 17 137463 883 17%
c B 29.42 690 20 13 1264 36022 8496 120% 17 137463 883 17%
c - 29.60 690 20 14 1264 36197 6014 119% 17 137463 883 17%
c - 31.47 690 19 15 1267 41321 5802 102% 16 137463 883 17%
c s 32.58 690 19 15 1268 44754 7852 95% 16 136634 883 17%
c v 33.38 690 19 15 1268 44754 7852 95% 16 136603 883 17%
c t 33.41 690 19 15 1268 44754 7851 95% 16 136603 883 17%
c e 33.64 690 19 15 1268 44754 7785 95% 16 136475 833 16%
c s 33.76 690 19 15 1268 44754 7784 95% 16 136165 833 16%
c W 34.43 690 19 15 1268 45023 7917 95% 16 136165 833 16%
c - 34.87 690 20 16 1269 46784 6233 92% 17 136165 833 16%
c p 35.96 690 20 16 1269 50005 10937 88% 17 136165 833 16%
c d 36.01 690 20 16 1269 50005 10932 88% 17 132131 832 16%
c - 36.93 690 20 17 1269 52567 6835 85% 17 132131 832 16%
c O 37.65 690 20 17 1270 55025 8102 83% 17 132131 832 16%
c - 38.29 690 20 18 1273 58620 6764 80% 17 132131 832 16%
c ] 38.85 690 20 18 1275 61012 7862 78% 17 132131 832 16%
c 1 38.85 690 20 18 1275 61012 7862 78% 17 132131 832 16%
c 
c --- [ writing output ] -----------------------------------------------------
c 
c writing simplified CNF to DIMACS file 'simp/12.cubes309.adj.simp1'
c * 38.85 690 20 18 1275 61012 7862 78% 17 132131 832 16%
c opening file to write 'simp/12.cubes309.adj.simp1'
c writing 'p cnf 5320 132131' header
c closing file 'simp/12.cubes309.adj.simp1'
c after writing 34581772 bytes 33.0 MB
c wrote 132131 clauses in 0.26 seconds process time
c 
c --- [ writing extension ] --------------------------------------------------
c 
c writing extension stack to 'simp/12.cubes309.adj.ext1'
c opening file to write 'simp/12.cubes309.adj.ext1'
c closing file 'simp/12.cubes309.adj.ext1'
c after writing 161688 bytes 0.2 MB
c wrote 7458 witnesses in 0.00 seconds process time
c 
c --- [ result ] -------------------------------------------------------------
c 
s SATISFIABLE
c 
c --- [ run-time profiling ] -------------------------------------------------
c 
c process time taken by individual solving procedures
c (percentage relative to process time for solving)
c 
c        24.51   81.38% search
c        11.85   39.35% unstable
c        11.66   38.71% stable
c         8.74   29.02% parse
c         5.61   18.62% simplify
c         2.02    6.71% probe
c         1.64    5.46% vivify
c         0.91    3.02% elim
c         0.53    1.76% lucky
c         0.47    1.56% walk
c         0.42    1.40% subsume
c         0.07    0.23% ternary
c   =================================
c        30.11   76.98% solve
c 
c last line shows process time for solving
c (percentage relative to total process time)
c 
c --- [ statistics ] ---------------------------------------------------------
c 
c chronological:             10348        16.96 %  of conflicts
c conflicts:                 61012      2026.13    per second
c decisions:                109626      3640.54    per second
c eliminated:                 2861        53.78 %  of all variables
c fixed:                      1611        30.28 %  of all variables
c learned:                   59765        97.96 %  per conflict
c learned_lits:            7879424       100.00 %  learned literals
c minimized:                     0         0.00 %  learned literals
c shrunken:                5154262        65.41 %  learned literals
c minishrunken:             454740         5.77 %  learned literals
c propagations:            6485801         0.22 M  per second
c reduced:                   25846        42.36 %  per conflict
c rephased:                     10      6101.20    interval
c restarts:                   1275        47.85    interval
c stabilizing:                   3        65.57 %  of conflicts
c substituted:                  16         0.30 %  of all variables
c subsumed:                  30756         1.45 %  of all clauses
c strengthened:              34605         1.63 %  of all clauses
c ternary:                    4759         0.55 %  of resolved
c vivified:                    120         0.01 %  of all clauses
c walked:                        2     30506.00    interval
c weakened:                   5847         2.87    average size
c 
c seconds are measured in process time for solving
c 
c --- [ resources ] ----------------------------------------------------------
c 
c total process time since initialization:        39.12    seconds
c total real time since initialization:           39.17    seconds
c maximum resident set size of process:          767.45    MB
c 
c --- [ shutting down ] ------------------------------------------------------
c 
c exit 10
WARNING! DIMACS header mismatch: wrong number of variables.
============================[ Problem Statistics ]=============================
|                                                                             |
|  Number of variables:          3389                                         |
|  Number of clauses:          132133                                         |
|  Parse time:                   0.46 s                                       |
|  Simplification time:          0.01 s                                       |
|                                                                             |
============================[ Search Statistics ]====================================================
| Conflicts |          ORIGINAL         |          LEARNT          | Num Sols |      SUBGRAPHS      |
|           |    Vars  Clauses Literals |    Limit  Clauses Lit/Cl |          | Canonical Noncanon. |
=====================================================================================================
|       100 |    3295   132133  8133029 |     2000      100     70 |        0 |        15         0 |
|       250 |    3295   132133  8133029 |     2000      250     71 |        0 |        26         0 |
|       611 |    3295   132269  8135709 |     2000      611     51 |        0 |        87       136 |
|      1054 |    3295   132375  8137363 |     2000     1054     53 |        0 |       114       242 |
|      1621 |    3295   132436  8138479 |     2000     1621     59 |        0 |       114       303 |
|      2443 |    3295   132499  8139711 |     3604     1447     40 |        0 |       153       366 |
|      3714 |    3295   132631  8142485 |     3604     2718     51 |        0 |       233       498 |
|      5522 |    3295   132731  8144229 |     5003     2725     42 |        0 |       325       598 |
|      8404 |    3295   133051  8150233 |     6304     3108     34 |        0 |       394       918 |
|     12452 |    3295   133255  8154002 |     7555     4007     36 |        0 |       538      1122 |
|     18533 |    3295   133570  8160450 |     8786     6319     43 |        0 |       744      1437 |
|     27739 |    3295   134127  8170078 |    11199     6138     27 |        0 |      1161      1994 |
|     42154 |    3295   135568  8197922 |    13612     8766     33 |        0 |      1676      3435 |
|     63389 |    3295   137342  8226381 |    16007    15796     46 |        0 |      2264      5209 |
|     99564 |    3295   144325  8338054 |    20815    16379     41 |        0 |      3362     12192 |
|    152492 |    3295   153464  8453495 |    25614    24106     34 |        0 |      4834     21331 |
=====================================================================================================
Number of solutions   : 0
Canonical subgraphs   : 6219           (219 /sec)
          order  3    : 1              (200000 /sec)
          order  4    : 1              (500000 /sec)
          order  5    : 1              (200000 /sec)
          order  6    : 1              (52632 /sec)
          order  7    : 2              (10204 /sec)
          order  8    : 6              (2621 /sec)
          order  9    : 27             (878 /sec)
          order 10    : 126            (522 /sec)
          order 11    : 720            (324 /sec)
          order 12    : 2985           (247 /sec)
          order 13    : 1927           (186 /sec)
          order 14    : 283            (135 /sec)
          order 15    : 134            (100 /sec)
          order 16    : 5              (102 /sec)
          order 17    : 0              (-nan /sec)
          order 18    : 0              (-nan /sec)
          order 19    : 0              (-nan /sec)
          order 20    : 0              (-nan /sec)
          order 21    : 0              (-nan /sec)
Noncanonical subgraphs: 29400          (1647 /sec)
          order  3    : 0              (-nan /sec)
          order  4    : 0              (-nan /sec)
          order  5    : 0              (-nan /sec)
          order  6    : 0              (-nan /sec)
          order  7    : 0              (-nan /sec)
          order  8    : 0              (-nan /sec)
          order  9    : 0              (-nan /sec)
          order 10    : 0              (-nan /sec)
          order 11    : 0              (-nan /sec)
          order 12    : 0              (-nan /sec)
          order 13    : 28465          (1664 /sec)
          order 14    : 836            (1345 /sec)
          order 15    : 99             (798 /sec)
          order 16    : 0              (-nan /sec)
          order 17    : 0              (-nan /sec)
          order 18    : 0              (-nan /sec)
          order 19    : 0              (-nan /sec)
          order 20    : 0              (-nan /sec)
Canonicity checking   : 28.4492 s
Noncanonicity checking: 17.8504 s
Total canonicity time : 46.2997 s
database reductions   : 23
restarts              : 510
conflicts             : 200178         (2371 /sec)
decisions             : 292152         (0.00 % random) (3460 /sec)
propagations          : 11289915       (133700 /sec)
conflict literals     : 12969532       (52.27 % deleted)
actual reward         : 0.208221
Memory used           : 114.00 MB
CPU time              : 84.4423 s

UNSATISFIABLE
